************************************************************************
file with basedata            : md352_.bas
initial value random generator: 79579098
************************************************************************
projects                      :  1
jobs (incl. supersource/sink ):  22
horizon                       :  163
RESOURCES
  - renewable                 :  2   R
  - nonrenewable              :  2   N
  - doubly constrained        :  0   D
************************************************************************
PROJECT INFORMATION:
pronr.  #jobs rel.date duedate tardcost  MPM-Time
    1     20      0       22       19       22
************************************************************************
PRECEDENCE RELATIONS:
jobnr.    #modes  #successors   successors
   1        1          3           2   3   4
   2        3          3           7   8  13
   3        3          3           5   6   9
   4        3          3          10  18  21
   5        3          1          10
   6        3          3          12  13  19
   7        3          3           9  18  20
   8        3          1          11
   9        3          1          21
  10        3          3          14  15  19
  11        3          3          14  18  21
  12        3          2          14  15
  13        3          2          16  17
  14        3          1          16
  15        3          2          16  17
  16        3          1          20
  17        3          1          20
  18        3          1          19
  19        3          1          22
  20        3          1          22
  21        3          1          22
  22        1          0        
************************************************************************
REQUESTS/DURATIONS:
jobnr. mode duration  R 1  R 2  N 1  N 2
------------------------------------------------------------------------
  1      1     0       0    0    0    0
  2      1     3       8    5    0   10
         2     6       7    3    6    0
         3     9       3    1    0    4
  3      1     4       8    9    7    0
         2     4       9    9    0    7
         3     8       8    3    7    0
  4      1     6       3    7    0    6
         2     7       2    4    8    0
         3     8       2    3    0    4
  5      1     3      10    4    0    7
         2    10      10    1    0    5
         3    10      10    2    0    4
  6      1     9       5    5    4    0
         2    10       4    1    0    2
         3    10       2    4    4    0
  7      1     1      10    7    0    3
         2     2      10    6    0    3
         3     6       9    6    0    3
  8      1     2       5    6    0    5
         2     5       4    5    6    0
         3     6       3    3    0    4
  9      1     2       7    9    7    0
         2     6       7    7    0    7
         3     7       3    7    7    0
 10      1     6      10    6    8    0
         2     7       5    3    0    6
         3     9       3    2    4    0
 11      1     1       4    5    0    9
         2     6       3    4    0    7
         3     9       3    1    0    6
 12      1     1       6    7    3    0
         2     2       6    6    3    0
         3     3       4    3    0    4
 13      1     4       3    8    0    8
         2    10       2    5    0    6
         3    10       2    4    9    0
 14      1     6       7    7    0    6
         2     6       8   10    7    0
         3     9       7    3    0    6
 15      1     1       8    7    8    0
         2     6       8    6    0    6
         3     9       7    6    0    5
 16      1     1       4    3    0    8
         2     4       4    3    0    6
         3     7       4    2    0    6
 17      1     2       9    6    7    0
         2     9       7    5    0    6
         3    10       7    5    0    3
 18      1     7       3    7    8    0
         2     8       2    4    5    0
         3     8       1    5    6    0
 19      1     3       9    2    7    0
         2     9       8    2    0    9
         3    10       7    2    0    6
 20      1     1       9    7    9    0
         2     2       8    7    0    8
         3     6       6    5    0    8
 21      1     4       3    4    0    8
         2     6       3    3    0    6
         3     9       2    3    2    0
 22      1     0       0    0    0    0
************************************************************************
RESOURCEAVAILABILITIES:
  R 1  R 2  N 1  N 2
   30   31  106  125
************************************************************************
MAXIMAL LAGS:
from  to  type  delay
    1   12   ES      0
    1    2   ES      0
    2   12   ES      0
    1    3   ES      0
    3   12   ES      0
    1    4   ES      0
    4   12   ES      0
    1    5   ES      0
    5   12   ES      0
    1    6   ES      0
    6   12   ES      0
    1    7   ES      0
    7   12   ES      0
    1    8   ES      0
    8   12   ES      0
    1    9   ES      0
    9   12   ES      0
    1   10   ES      0
   10   12   ES      0
    1   11   ES      0
   11   12   ES      0
    1   12   ES      0
    2    7   SS      8
    2    7   SE     -8
    2    7   ES     -4
    2    7   EE      2
    2    8   SS      7
    2    8   SE     -8
    2    8   ES     -1
    2    8   EE     10
    2   13   SS     11
    2   13   SE     -4
    2   13   ES     -8
    2   13   EE     -8
    3    5   SS    -10
    3    5   SE      4
    3    5   ES      5
    3    5   EE     -5
    3    6   SS     10
    3    6   SE     -4
    3    6   ES      8
    3    6   EE      9
    3    9   SS     -2
    3    9   SE     10
    3    9   ES      5
    3    9   EE     -9
    4   10   SS      6
    4   10   SE     -7
    4   10   ES     11
    4   10   EE    -12
    4   18   SS     -3
    4   18   SE     12
    4   18   ES      5
    4   18   EE      3
    4   21   SS      3
    4   21   SE    -11
    4   21   ES      1
    4   21   EE      3
    5   10   SS      8
    5   10   SE      0
    5   10   ES      6
    5   10   EE     -6
    6   13   SS     -6
    6   13   SE     -5
    6   13   ES     12
    6   13   EE     -7
    6   19   SS      6
    6   19   SE      6
    6   19   ES      5
    6   19   EE      1
    7    9   SS     -1
    7    9   SE     -9
    7    9   ES     -1
    7    9   EE      7
    7   18   SS    -11
    7   18   SE     -7
    7   18   ES     -2
    7   18   EE      2
    7   20   SS     10
    7   20   SE      5
    7   20   ES      9
    7   20   EE     -3
    8   11   SS      1
    8   11   SE     -4
    8   11   ES    -11
    8   11   EE      4
    9   21   SS     -2
    9   21   SE      8
    9   21   ES      4
    9   21   EE     -1
   10   14   SS     11
   10   14   SE      4
   10   14   ES      4
   10   14   EE     -6
   10   15   SS     11
   10   15   SE      5
   10   15   ES     -7
   10   15   EE     12
   10   19   SS     -2
   10   19   SE     10
   10   19   ES      1
   10   19   EE     10
   11   14   SS      3
   11   14   SE     -8
   14   11   SE      0
   11   14   ES      0
   11   14   EE     -7
   11   18   SS    -12
   11   18   SE     11
   11   18   ES      4
   11   18   EE     -4
   11   21   SS      0
   11   21   SE      3
   11   21   ES     -8
   11   21   EE      9
   12   14   SS      6
   12   14   SE     12
   12   14   ES     -7
   12   14   EE     -1
   12   15   SS     -3
   12   15   SE     -6
   12   15   ES     12
   12   15   EE      8
   13   16   SS     -2
   13   16   SE     11
   13   16   ES     -1
   13   16   EE    -10
   13   17   SS      6
   13   17   SE      0
   13   17   ES     -7
   13   17   EE      5
   14   16   SS     -7
   14   16   SE     -7
   14   16   ES     -7
   14   16   EE     -1
   15   16   SS    -12
   15   16   SE     12
   15   16   ES     -9
   15   16   EE      5
   15   17   SS     -7
   15   17   SE     -1
   15   17   ES     11
   15   17   EE      9
   16   20   SS      8
   16   20   SE      0
   16   20   ES     -7
   16   20   EE     12
   17   20   SS     -3
   17   20   SE      2
   17   20   ES     -7
   17   20   EE      5
   18   19   SS      1
   18   19   SE     -6
   18   19   ES      6
   18   19   EE     12
   19   22   SS     -4
   19   22   SE     -7
   19   22   ES      8
   19   22   EE    -12
   20   22   SS    -10
   20   22   SE     -7
   20   22   ES     -7
   20   22   EE     -5
   21   22   SS     -4
   21   22   SE    -10
   21   22   ES     -3
   21   22   EE      6
************************************************************************
